0
15
35
43
0
0
76
27
0
23
17
20
24
0
0
24
63
20
17
23
0
31
0
60
19
85
29
29
104
0
15
16
50
29
0
0
31
14
40
16
21
20
18
16
27
29
0
0
24
33
23
21
0
35
0
28
0
54
23
23
0
26
59
21
18
46
0
0
35
30
0
73
22
30
43
26
41
0
27
17
26
36
0
0
0
31
148
35
67
76
0
21
41
32
25
35
30
22
0
22
